100 100 100
50
2 28 21
46 49 34
40 48 19
10 93 69
33 81 67
86 81 74
11 30 20
43 9 4
30 100 100
21 20 48
22 93 82
53 83 71
76 79 3
58 90 84
14 29 43
79 46 97
6 27 45
38 43 7
41 49 27
68 37 87
42 32 50
80 18 98
80 87 3
64 52 94
25 4 46
47 30 45
9 20 13
38 80 90
11 21 4
22 32 49
8 17 22
46 23 10
29 18 1
33 7 34
68 32 91
88 73 71
95 45 68
41 27 10
20 25 33
91 92 46
80 83 91
42 26 34
89 38 81
16 10 13
50 17 23
36 15 16
40 76 78
100 84 87
43 11 40
3 40 35
